0 330.0 170.0
1 320.0 170.0
2 310.0 170.0
3 300.0 170.0
4 290.0 170.0
5 280.0 170.0
6 270.0 170.0
7 260.0 170.0
8 250.0 170.0
9 240.0 170.0
10 230.0 170.0
11 220.0 170.0
12 210.0 170.0
13 200.0 170.0
14 190.0 170.0
15 180.0 170.0
16 170.0 170.0
17 160.0 170.0
18 150.0 170.0
19 140.0 170.0
20 130.0 170.0
21 120.0 170.0
22 110.0 170.0
23 100.0 170.0
24 90.0 170.0
25 80.0 170.0
26 70.0 170.0
27 50.0 170.0
28 50.0 170.0
29 40.0 170.0
30 30.0 170.0
31 23.33 170.0
32 16.67 170.0
33 10.0 170.0
34 10.0 176.67
35 10.0 183.33
36 10.0 190.0
37 16.67 190.0
38 23.33 190.0
39 30.0 190.0
40 40.0 190.0
41 50.0 190.0
42 60.0 190.0
43 70.0 190.0
44 80.0 190.0
45 90.0 190.0
46 100.0 190.0
47 110.0 190.0
48 120.0 190.0
49 130.0 190.0
50 140.0 190.0
51 150.0 190.0
52 160.0 190.0
53 170.0 190.0
54 180.0 190.0
55 190.0 190.0
56 200.0 190.0
57 210.0 190.0
58 220.0 190.0
59 230.0 190.0
60 240.0 190.0
61 250.0 190.0
62 260.0 190.0
63 270.0 190.0
64 280.0 190.0
65 290.0 190.0
66 300.0 190.0
67 310.0 190.0
68 320.0 190.0
69 330.0 190.0
70 340.0 190.0
71 350.0 190.0
72 360.0 190.0
73 370.0 190.0
74 380.0 190.0
75 390.0 190.0
76 400.0 190.0
77 410.0 190.0
78 420.0 190.0
79 430.0 190.0
80 440.0 190.0
81 450.0 190.0
82 456.67 190.0
83 463.33 190.0
84 470.0 190.0
85 470.0 183.33
86 470.0 176.67
87 470.0 170.0
88 470.0 163.33
89 470.0 156.67
90 470.0 150.0
91 476.67 150.0
92 483.33 150.0
93 490.0 150.0
94 496.67 150.0
95 503.33 150.0
96 510.0 150.0
97 510.0 143.33
98 510.0 136.67
99 510.0 130.0
100 503.33 130.0
101 496.67 130.0
102 490.0 130.0
103 480.0 130.0
104 470.0 130.0
105 460.0 130.0
106 450.0 130.0
107 440.0 130.0
108 430.0 130.0
109 420.0 130.0
110 410.0 130.0
111 400.0 130.0
112 390.0 130.0
113 380.0 130.0
114 370.0 130.0
115 360.0 130.0
116 350.0 130.0
117 340.0 130.0
118 330.0 130.0
119 320.0 130.0
120 310.0 130.0
121 300.0 130.0
122 290.0 130.0
123 280.0 130.0
124 270.0 130.0
125 263.33 130.0
126 256.67 130.0
127 250.0 130.0
128 250.0 136.67
129 250.0 143.33
130 250.0 150.0
131 256.67 150.0
132 263.33 150.0
133 270.0 150.0
134 280.0 150.0
135 290.0 150.0
136 300.0 150.0
137 310.0 150.0
138 320.0 150.0
139 330.0 150.0
140 340.0 150.0
141 350.0 150.0
142 360.0 150.0
143 370.0 150.0
144 380.0 150.0
145 390.0 150.0
146 400.0 150.0
147 410.0 150.0
148 420.0 150.0
149 430.0 150.0
150 436.67 150.0
151 443.33 150.0
152 450.0 150.0
153 450.0 156.67
154 450.0 163.33
155 450.0 170.0
156 443.33 170.0
157 436.67 170.0
158 430.0 170.0
159 420.0 170.0
160 410.0 170.0
161 400.0 170.0
162 390.0 170.0
163 380.0 170.0
164 370.0 170.0
165 360.0 170.0
166 350.0 170.0
0 340.0 170.0
